; benchmark generated from python API
(set-info :status unknown)
(declare-fun DISJ_W_S2_R_S1 () Bool)
(declare-fun DISJ_W_S1_R_S2 () Bool)
(declare-fun DISJ_W_S2_R_S2 () Bool)
(declare-fun W_S2_V2 () Bool)
(declare-fun R_E1_V4 () Bool)
(declare-fun W_S1_V4 () Bool)
(declare-fun R_E1_V5 () Bool)
(declare-fun W_S1_V5 () Bool)
(declare-fun W_S2_V5 () Bool)
(declare-fun W_S2_V3 () Bool)
(declare-fun W_S2_V1 () Bool)
(declare-fun R_S2_V4 () Bool)
(declare-fun R_S2_V5 () Bool)
(declare-fun R_S2_V2 () Bool)
(declare-fun R_S2_V3 () Bool)
(declare-fun R_S2_V1 () Bool)
(declare-fun R_S1_V4 () Bool)
(declare-fun R_S1_V5 () Bool)
(declare-fun R_S1_V2 () Bool)
(declare-fun R_S1_V3 () Bool)
(declare-fun R_S1_V1 () Bool)
(declare-fun R_E1_V2 () Bool)
(declare-fun DISJ_W_S2_R_E1 () Bool)
(declare-fun DISJ_W_S1_W_S2 () Bool)
(declare-fun R_E1_V3 () Bool)
(declare-fun DISJ_W_S1_R_S1 () Bool)
(declare-fun W_S2_V4 () Bool)
(declare-fun W_S1_V3 () Bool)
(declare-fun W_S1_V2 () Bool)
(declare-fun W_S1_V1 () Bool)
(declare-fun R_E1_V1 () Bool)
(declare-fun DISJ_W_S1_R_E1 () Bool)
(assert
 (let (($x1111 (not (and DISJ_W_S1_R_S2 DISJ_W_S2_R_S1))))
 (let (($x2240 (not (and (not W_S2_V2) DISJ_W_S2_R_S2))))
 (let (($x639 (not (and DISJ_W_S2_R_S1 DISJ_W_S2_R_S2))))
 (let (($x191 (not (and W_S1_V4 R_E1_V4))))
 (let (($x2612 (not (and W_S1_V5 R_E1_V5))))
 (let (($x3586 (forall ((V3_0 Int) )(forall ((V2_0 Int) )(forall ((V5_0 Int) )(forall ((V4_0 Int) )(forall ((MW_S1_V1 Bool) )(forall ((MW_S1_V3 Bool) )(forall ((MW_S1_V2 Bool) )(forall ((MW_S1_V5 Bool) )(forall ((MW_S1_V4 Bool) )(forall ((MW_S2_V1 Bool) )(forall ((MW_S2_V3 Bool) )(forall ((MW_S2_V2 Bool) )(forall ((MW_S2_V5 Bool) )(forall ((MW_S2_V4 Bool) )(forall ((S1_V1_!2447 Int) )(forall ((S1_V1_!2457 Int) )(forall ((S1_V1_!2468 Int) )(forall ((S2_V5_!2455 Int) )(forall ((S2_V5_!2465 Int) )(forall ((S2_V5_!2477 Int) )(forall ((S2_V5_!2482 Int) )(forall ((S1_V3_!2448 Int) )(forall ((S1_V3_!2458 Int) )(forall ((S1_V3_!2469 Int) )(forall ((S1_V2_!2449 Int) )(forall ((S1_V2_!2459 Int) )(forall ((S1_V2_!2470 Int) )(forall ((E1_!2446 Int) )(forall ((E1_!2467 Int) )(forall ((E1_!2473 Int) )(forall ((S2_V4_!2456 Int) )(forall ((S2_V4_!2466 Int) )(forall ((S2_V4_!2478 Int) )(forall ((S2_V4_!2483 Int) )(forall ((S1_V5_!2450 Int) )(forall ((S1_V5_!2460 Int) )(forall ((S1_V5_!2471 Int) )(forall ((S2_V1_!2452 Int) )(forall ((S2_V1_!2462 Int) )(forall ((S2_V1_!2474 Int) )(forall ((S2_V1_!2479 Int) )(forall ((S1_V4_!2451 Int) )(forall ((S1_V4_!2461 Int) )(forall ((S1_V4_!2472 Int) )(forall ((S2_V2_!2454 Int) )(forall ((S2_V2_!2464 Int) )(forall ((S2_V2_!2476 Int) )(forall ((S2_V2_!2481 Int) )(forall ((S2_V3_!2453 Int) )(forall ((S2_V3_!2463 Int) )(forall ((S2_V3_!2475 Int) )(forall ((S2_V3_!2480 Int) )(let (($x602 (= (ite MW_S2_V4 S2_V4_!2466 (ite MW_S1_V4 S1_V4_!2461 (ite MW_S2_V4 S2_V4_!2456 (ite MW_S1_V4 S1_V4_!2451 V4_0)))) (ite MW_S2_V4 S2_V4_!2483 (ite MW_S1_V4 S1_V4_!2472 V4_0)))))
 (let (($x1736 (= (ite MW_S2_V5 S2_V5_!2465 (ite MW_S1_V5 S1_V5_!2460 (ite MW_S2_V5 S2_V5_!2455 (ite MW_S1_V5 S1_V5_!2450 V5_0)))) (ite MW_S2_V5 S2_V5_!2482 (ite MW_S1_V5 S1_V5_!2471 V5_0)))))
 (let ((?x1096 (ite MW_S1_V2 S1_V2_!2470 V2_0)))
 (let ((?x2104 (ite MW_S2_V2 S2_V2_!2481 ?x1096)))
 (let ((?x5316 (ite MW_S1_V2 S1_V2_!2449 V2_0)))
 (let ((?x1317 (ite MW_S2_V2 S2_V2_!2454 ?x5316)))
 (let ((?x60 (ite MW_S1_V2 S1_V2_!2459 ?x1317)))
 (let ((?x3361 (ite MW_S2_V2 S2_V2_!2464 ?x60)))
 (let (($x1052 (= (ite MW_S2_V3 S2_V3_!2463 (ite MW_S1_V3 S1_V3_!2458 (ite MW_S2_V3 S2_V3_!2453 (ite MW_S1_V3 S1_V3_!2448 V3_0)))) (ite MW_S2_V3 S2_V3_!2480 (ite MW_S1_V3 S1_V3_!2469 V3_0)))))
 (let ((?x4233 (ite MW_S2_V1 S2_V1_!2474 E1_!2473)))
 (let ((?x5764 (+ 1 ?x4233)))
 (let ((?x3495 (ite MW_S2_V1 S2_V1_!2479 ?x5764)))
 (let ((?x2283 (ite MW_S1_V1 S1_V1_!2447 E1_!2446)))
 (let ((?x1354 (ite MW_S2_V1 S2_V1_!2452 ?x2283)))
 (let ((?x1963 (+ 1 ?x1354)))
 (let ((?x2103 (ite MW_S1_V1 S1_V1_!2457 ?x1963)))
 (let ((?x871 (ite MW_S2_V1 S2_V1_!2462 ?x2103)))
 (let (($x498 (and (not (<= V2_0 E1_!2446)) (not (<= ?x1317 ?x1963)) (>= ?x871 (+ (- 1) ?x3361)) (not (<= V2_0 E1_!2467)) (>= (ite MW_S1_V1 S1_V1_!2468 E1_!2467) (+ (- 1) ?x1096)) (not (<= ?x1096 E1_!2473)) (not (<= (ite MW_S2_V2 S2_V2_!2476 ?x1096) ?x5764)) (>= ?x3495 (+ (- 1) ?x2104)))))
 (let (($x2826 (= S2_V3_!2475 S2_V3_!2480)))
 (let (($x1649 (not R_S2_V4)))
 (let (($x2652 (or $x1649 (= (ite MW_S1_V4 S1_V4_!2472 V4_0) (ite MW_S2_V4 S2_V4_!2478 (ite MW_S1_V4 S1_V4_!2472 V4_0))))))
 (let (($x6073 (not R_S2_V5)))
 (let (($x2649 (or $x6073 (= (ite MW_S1_V5 S1_V5_!2471 V5_0) (ite MW_S2_V5 S2_V5_!2477 (ite MW_S1_V5 S1_V5_!2471 V5_0))))))
 (let (($x1277 (not R_S2_V3)))
 (let (($x1076 (or $x1277 (= (ite MW_S1_V3 S1_V3_!2469 V3_0) (ite MW_S2_V3 S2_V3_!2475 (ite MW_S1_V3 S1_V3_!2469 V3_0))))))
 (let (($x1622 (and (or (not R_S2_V1) (= E1_!2473 ?x5764)) $x1076 (or (not R_S2_V2) (= ?x1096 (ite MW_S2_V2 S2_V2_!2476 ?x1096))) $x2649 $x2652)))
 (let (($x4668 (not $x1622)))
 (let (($x2208 (= S2_V3_!2475 S2_V3_!2463)))
 (let ((?x2169 (ite MW_S1_V4 S1_V4_!2451 V4_0)))
 (let ((?x588 (ite MW_S2_V4 S2_V4_!2456 ?x2169)))
 (let ((?x5872 (ite MW_S1_V4 S1_V4_!2461 ?x588)))
 (let ((?x3519 (ite MW_S1_V4 S1_V4_!2472 V4_0)))
 (let ((?x4413 (ite MW_S1_V5 S1_V5_!2450 V5_0)))
 (let ((?x2754 (ite MW_S2_V5 S2_V5_!2455 ?x4413)))
 (let ((?x190 (ite MW_S1_V5 S1_V5_!2460 ?x2754)))
 (let ((?x1907 (ite MW_S1_V5 S1_V5_!2471 V5_0)))
 (let ((?x2792 (ite MW_S1_V3 S1_V3_!2448 V3_0)))
 (let ((?x2517 (ite MW_S2_V3 S2_V3_!2453 ?x2792)))
 (let ((?x2732 (ite MW_S1_V3 S1_V3_!2458 ?x2517)))
 (let ((?x598 (ite MW_S1_V3 S1_V3_!2469 V3_0)))
 (let (($x3208 (and (or (not R_S2_V1) (= E1_!2473 ?x2103)) (or $x1277 (= ?x598 ?x2732)) (or (not R_S2_V2) (= ?x1096 ?x60)) (or $x6073 (= ?x1907 ?x190)) (or $x1649 (= ?x3519 ?x5872)))))
 (let (($x587 (not $x3208)))
 (let (($x1893 (= S2_V3_!2475 S2_V3_!2453)))
 (let (($x2830 (and (or (not R_S2_V1) (= E1_!2473 ?x2283)) (or $x1277 (= ?x598 ?x2792)) (or (not R_S2_V2) (= ?x1096 ?x5316)) (or $x6073 (= ?x1907 ?x4413)) (or $x1649 (= ?x3519 ?x2169)))))
 (let (($x5317 (not $x2830)))
 (let (($x3248 (= S2_V3_!2463 S2_V3_!2480)))
 (let (($x2257 (and (or (not R_S2_V1) (= ?x2103 ?x5764)) (or $x1277 (= ?x2732 (ite MW_S2_V3 S2_V3_!2475 ?x598))) (or (not R_S2_V2) (= ?x60 (ite MW_S2_V2 S2_V2_!2476 ?x1096))) (or $x6073 (= ?x190 (ite MW_S2_V5 S2_V5_!2477 ?x1907))) (or $x1649 (= ?x5872 (ite MW_S2_V4 S2_V4_!2478 ?x3519))))))
 (let (($x5423 (not $x2257)))
 (let (($x484 (= S2_V3_!2463 S2_V3_!2453)))
 (let (($x3228 (and (or (not R_S2_V1) (= ?x2103 ?x2283)) (or $x1277 (= ?x2732 ?x2792)) (or (not R_S2_V2) (= ?x60 ?x5316)) (or $x6073 (= ?x190 ?x4413)) (or $x1649 (= ?x5872 ?x2169)))))
 (let (($x1273 (not $x3228)))
 (let (($x2805 (= S2_V3_!2453 S2_V3_!2480)))
 (let (($x2621 (and (or (not R_S2_V1) (= ?x2283 ?x5764)) (or $x1277 (= ?x2792 (ite MW_S2_V3 S2_V3_!2475 ?x598))) (or (not R_S2_V2) (= ?x5316 (ite MW_S2_V2 S2_V2_!2476 ?x1096))) (or $x6073 (= ?x4413 (ite MW_S2_V5 S2_V5_!2477 ?x1907))) (or $x1649 (= ?x2169 (ite MW_S2_V4 S2_V4_!2478 ?x3519))))))
 (let (($x5071 (not $x2621)))
 (let (($x2699 (= S2_V2_!2481 S2_V2_!2476)))
 (let (($x1126 (and (or (not R_S2_V1) (= ?x4233 (+ (- 1) E1_!2473))) (or $x1277 (= (ite MW_S2_V3 S2_V3_!2475 ?x598) ?x598)) (or (not R_S2_V2) (= (ite MW_S2_V2 S2_V2_!2476 ?x1096) ?x1096)) (or $x6073 (= (ite MW_S2_V5 S2_V5_!2477 ?x1907) ?x1907)) (or $x1649 (= (ite MW_S2_V4 S2_V4_!2478 ?x3519) ?x3519)))))
 (let (($x1999 (not $x1126)))
 (let (($x2680 (= S2_V2_!2481 S2_V2_!2464)))
 (let (($x5767 (and (or (not R_S2_V1) (= ?x4233 (+ (- 1) ?x2103))) (or $x1277 (= (ite MW_S2_V3 S2_V3_!2475 ?x598) ?x2732)) (or (not R_S2_V2) (= (ite MW_S2_V2 S2_V2_!2476 ?x1096) ?x60)) (or $x6073 (= (ite MW_S2_V5 S2_V5_!2477 ?x1907) ?x190)) (or $x1649 (= (ite MW_S2_V4 S2_V4_!2478 ?x3519) ?x5872)))))
 (let (($x2020 (= S2_V2_!2464 S2_V2_!2476)))
 (let (($x1741 (and (or (not R_S2_V1) (= ?x2103 E1_!2473)) (or $x1277 (= ?x2732 ?x598)) (or (not R_S2_V2) (= ?x60 ?x1096)) (or $x6073 (= ?x190 ?x1907)) (or $x1649 (= ?x5872 ?x3519)))))
 (let (($x2772 (not $x1741)))
 (let (($x4058 (= S2_V2_!2454 S2_V2_!2476)))
 (let (($x1236 (and (or (not R_S2_V1) (= ?x2283 E1_!2473)) (or $x1277 (= ?x2792 ?x598)) (or (not R_S2_V2) (= ?x5316 ?x1096)) (or $x6073 (= ?x4413 ?x1907)) (or $x1649 (= ?x2169 ?x3519)))))
 (let (($x4292 (not $x1236)))
 (let (($x4691 (= S2_V2_!2454 S2_V2_!2464)))
 (let (($x680 (and (or (not R_S2_V1) (= ?x2283 ?x2103)) (or $x1277 (= ?x2792 ?x2732)) (or (not R_S2_V2) (= ?x5316 ?x60)) (or $x6073 (= ?x4413 ?x190)) (or $x1649 (= ?x2169 ?x5872)))))
 (let (($x1276 (not $x680)))
 (let (($x5215 (= S1_V4_!2472 S1_V4_!2461)))
 (let (($x788 (not R_S1_V4)))
 (let (($x1495 (or $x788 (= V4_0 ?x588))))
 (let (($x5954 (not R_S1_V5)))
 (let (($x4238 (or $x5954 (= V5_0 ?x2754))))
 (let (($x2070 (not R_S1_V2)))
 (let (($x3541 (or $x2070 (= V2_0 ?x1317))))
 (let (($x3712 (not R_S1_V3)))
 (let (($x2999 (or $x3712 (= V3_0 ?x2517))))
 (let (($x2515 (not (and (or (not R_S1_V1) (= E1_!2467 ?x1963)) $x2999 $x3541 $x4238 $x1495))))
 (let (($x2616 (not (and (or (not R_S1_V1) (= E1_!2446 ?x1963)) $x2999 $x3541 $x4238 $x1495))))
 (let (($x5748 (and (or (not R_S2_V1) (= ?x4233 (+ (- 1) ?x2283))) (or $x1277 (= (ite MW_S2_V3 S2_V3_!2475 ?x598) ?x2792)) (or (not R_S2_V2) (= (ite MW_S2_V2 S2_V2_!2476 ?x1096) ?x5316)) (or $x6073 (= (ite MW_S2_V5 S2_V5_!2477 ?x1907) ?x4413)) (or $x1649 (= (ite MW_S2_V4 S2_V4_!2478 ?x3519) ?x2169)))))
 (let (($x1964 (and (or (not R_E1_V2) (= V2_0 ?x1096)) (or (not R_E1_V5) (= V5_0 ?x1907)) (or (not R_E1_V4) (= V4_0 ?x3519)))))
 (let (($x4061 (not $x1964)))
 (let (($x5960 (= E1_!2467 E1_!2446)))
 (let (($x2223 (or $x788 (= ?x588 V4_0))))
 (let (($x358 (or $x5954 (= ?x2754 V5_0))))
 (let (($x768 (or $x2070 (= ?x1317 V2_0))))
 (let (($x2861 (or $x3712 (= ?x2517 V3_0))))
 (let (($x1994 (and (or (not R_S1_V1) (= ?x1354 (+ (- 1) E1_!2467))) $x2861 $x768 $x358 $x2223)))
 (let (($x1103 (not $x1994)))
 (let (($x1191 (= S1_V2_!2459 S1_V2_!2449)))
 (let (($x4823 (and (or (not R_S1_V1) (= ?x1354 (+ (- 1) E1_!2446))) $x2861 $x768 $x358 $x2223)))
 (let (($x2598 (not $x4823)))
 (let (($x4762 (and (or $x2598 (= S1_V1_!2457 S1_V1_!2447)) (or (not (or (not R_S1_V1) $x5960)) (= S1_V1_!2468 S1_V1_!2447)) (or $x2515 (= S1_V1_!2468 S1_V1_!2457)) (or $x1276 (= S2_V5_!2455 S2_V5_!2465)) (or $x4292 (= S2_V5_!2455 S2_V5_!2477)) (or $x5071 (= S2_V5_!2455 S2_V5_!2482)) (or $x2772 (= S2_V5_!2465 S2_V5_!2477)) (or $x5423 (= S2_V5_!2465 S2_V5_!2482)) (or $x1999 (= S2_V5_!2482 S2_V5_!2477)) (or $x2598 (= S1_V3_!2458 S1_V3_!2448)) (or $x1103 (= S1_V3_!2458 S1_V3_!2469)) (or (not (or (not R_S1_V1) $x5960)) (= S1_V3_!2469 S1_V3_!2448)) (or $x2598 $x1191) (or $x1103 (= S1_V2_!2459 S1_V2_!2470)) (or (not (or (not R_S1_V1) $x5960)) (= S1_V2_!2470 S1_V2_!2449)) (or $x4061 (= E1_!2446 E1_!2473)) $x5960 (or $x4061 (= E1_!2467 E1_!2473)) (or $x1273 (= S2_V4_!2466 S2_V4_!2456)) (or $x2772 (= S2_V4_!2466 S2_V4_!2478)) (or $x5423 (= S2_V4_!2466 S2_V4_!2483)) (or $x5317 (= S2_V4_!2478 S2_V4_!2456)) (or $x4668 (= S2_V4_!2478 S2_V4_!2483)) (or (not $x5748) (= S2_V4_!2483 S2_V4_!2456)) (or $x2616 (= S1_V5_!2450 S1_V5_!2460)) (or (not (or (not R_S1_V1) $x5960)) (= S1_V5_!2471 S1_V5_!2450)) (or $x2515 (= S1_V5_!2471 S1_V5_!2460)) (or $x5071 (= S2_V1_!2452 S2_V1_!2479)) (or $x1273 (= S2_V1_!2462 S2_V1_!2452)) (or $x5423 (= S2_V1_!2462 S2_V1_!2479)) (or $x5317 (= S2_V1_!2474 S2_V1_!2452)) (or $x587 (= S2_V1_!2474 S2_V1_!2462)) (or $x4668 (= S2_V1_!2474 S2_V1_!2479)) (or $x2616 (= S1_V4_!2451 S1_V4_!2461)) (or (not (or (not R_S1_V1) (= E1_!2446 E1_!2467))) (= S1_V4_!2451 S1_V4_!2472)) (or $x2515 $x5215) (or $x1276 $x4691) (or $x4292 $x4058) (or $x5071 (= S2_V2_!2454 S2_V2_!2481)) (or $x2772 $x2020) (or (not $x5767) $x2680) (or $x1999 $x2699) (or $x5071 $x2805) (or $x1273 $x484) (or $x5423 $x3248) (or $x5317 $x1893) (or $x587 $x2208) (or $x4668 $x2826) (not MW_S1_V1) (not MW_S1_V2) (or (not MW_S1_V5) W_S1_V5) (or (not MW_S1_V4) W_S1_V4) (or (not MW_S2_V1) W_S2_V1) (or (not MW_S2_V3) W_S2_V3) (or (not MW_S2_V2) W_S2_V2) (or (not MW_S2_V5) W_S2_V5))))
 (or (not $x4762) (not $x498) (and (= ?x871 ?x3495) $x1052 (= ?x3361 ?x2104) $x1736 $x602))))))))))))))))))))))))))))))))))))))))))))))))))))))))))))))))))))))))))))))))))))))))))))))))
 )
 )
 )
 )
 )
 )
 )
 )
 )
 )
 )
 )
 )
 )
 )
 )
 )
 )
 )
 )
 )
 )
 )
 )
 )
 )
 )
 )
 )
 )
 )
 )
 )
 )
 )
 )
 )
 )
 )
 )
 )
 )
 )
 )
 )
 )
 )
 )
 )
 )
 )
 ))
 (let (($x3987 (not (or (and W_S2_V2 R_E1_V2) (and W_S2_V5 R_E1_V5) R_E1_V4))))
 (let (($x1140 (= DISJ_W_S2_R_E1 $x3987)))
 (let (($x1526 (and W_S2_V5 R_S2_V5)))
 (let (($x2117 (and W_S2_V2 R_S2_V2)))
 (let (($x89 (and W_S2_V3 R_S2_V3)))
 (let (($x5266 (and W_S2_V1 R_S2_V1)))
 (let (($x6026 (= DISJ_W_S2_R_S2 (not (or $x5266 $x89 $x2117 $x1526 R_S2_V4)))))
 (let (($x4871 (and W_S2_V5 R_S1_V5)))
 (let (($x960 (and W_S2_V2 R_S1_V2)))
 (let (($x2320 (and W_S2_V3 R_S1_V3)))
 (let (($x5507 (and W_S2_V1 R_S1_V1)))
 (let (($x4663 (= DISJ_W_S2_R_S1 (not (or $x5507 $x2320 $x960 $x4871 R_S1_V4)))))
 (let (($x6005 (= DISJ_W_S1_W_S2 (not (or W_S2_V3 (and W_S1_V5 W_S2_V5) W_S1_V4)))))
 (let (($x5964 (not R_E1_V3)))
 (let (($x1281 (not (or R_S2_V3 (and W_S1_V5 R_S2_V5) (and W_S1_V4 R_S2_V4)))))
 (let (($x1842 (= DISJ_W_S1_R_S2 $x1281)))
 (let (($x860 (not (or R_S1_V3 (and W_S1_V5 R_S1_V5) (and W_S1_V4 R_S1_V4)))))
 (let (($x2871 (= DISJ_W_S1_R_S1 $x860)))
 (let (($x2022 (not R_S1_V1)))
 (let (($x1970 (and $x2022 DISJ_W_S1_R_S1)))
 (let (($x5878 (not W_S2_V2)))
 (let (($x2160 (not W_S2_V1)))
 (let (($x2759 (and $x2160 $x5878)))
 (let (($x4015 (and $x5878 DISJ_W_S2_R_S1 DISJ_W_S1_R_S1)))
 (let (($x4796 (or $x4015 $x2759 $x1970)))
 (let (($x6 (not W_S1_V2)))
 (let (($x2445 (not W_S1_V1)))
 (let (($x1722 (not R_E1_V1)))
 (let (($x521 (and DISJ_W_S1_R_E1 $x1722 $x2445 $x6 $x4796 W_S1_V3 W_S2_V4 $x2871 $x1842 $x5964 $x6005 $x4663 $x6026 $x1140 $x3586 $x2612 $x191)))
 (and $x521 $x639 $x2240 $x1111)))))))))))))))))))))))))))))))))))))
(check-sat)
